n_nurses =  30;
sched_period =  14;
n_shifts =  3;
nurses_coverage = array2d(period, shifts, [
10, 4, 5,
4, 5, 2,
3, 3, 6,
4, 6, 11,
4, 6, 11,
4, 3, 1,
9, 10, 3,
6, 2, 5,
4, 10, 4,
4, 4, 2,
5, 4, 2,
4, 4, 10,
9, 3, 4,
9, 3, 7]);
